coords = array2d(1..35, 1..2, [923, 911, 482, 326, 315, 982, 281, 548, 700,
    572, 129, 155, 648, 464, 480, 332, 758, 97, 267, 252, 270, 832,
    178, 916, 75, 762, 629, 37, 638, 719, 107, 411, 310, 94, 417, 896,
    130, 803, 88, 953, 715, 173, 610, 822, 157, 951, 477, 787, 101,
    622, 47, 394, 867, 508, 945, 497, 581, 679, 329, 419, 932, 458, 3,
    810, 258, 82, 643, 414, 322, 788]);

n = 35;

